1577593
20,37,66,6,42,45,33,54,25,65,10,63,40,29,24,5,28,59,22,48,18,4,39,55,31,11,0,53,12,64,44,26,16,8,57,14,7,67,34,50,38,61,36,52,43,9,17,56,32,51,13,21,30,27,49,35,58,15,62,1,47,3,19,46,23,60,41,2
